\ENCODING=ISO-8859-1
\Problem name: instances

Maximize
 obj:
Subject To
 c1: 62 x2 + x3 + 30 x4 + 6 x5 + 57 x6 + x7 + 55 x8 + 3 x9 + 57 x10 <= 142
 c2: 41 x1 + 78 x2 + 100 x3 - 36 x4 + 34 x5 + 81 x6 + 29 x8 - 43 x10 <= 173
 c3: 54 x1 + 83 x2 + 95 x3 + 8 x4 + 28 x5 + 22 x6 + 5 x7 + 27 x8 + 59 x9
     + 52 x10 <= 160
 c4: 52 x1 - 26 x2 + 86 x4 + 26 x6 + 40 x7 + 3 x8 + 17 x9 + 95 x10 <= 125
 c5: 59 x1 + 17 x2 + 95 x3 + 50 x4 + 75 x5 - 21 x6 + 54 x7 + 12 x8 + 24 x9
     + 79 x10 <= 156
Bounds
      x1 >= 0
      x2 >= 0
      x3 >= 0
      x4 >= 0
      x5 >= 0
      x6 >= 0
      x7 >= 0
      x8 >= 0
      x9 >= 0
      x10 >= 0
Generals
 x1  x2  x3  x4  x5  x6  x7  x8  x9  x10 
End
